20191030 130900.00 126500.00
20180528 128800.00 125800.00
20171030 75746.45 73338.65
20170601 50525.80 48359.65
20161226 50525.80 48359.65
20160520 50552.40 48358.89
20160321 50367.70 48358.89
20150630 48672.00 48541.92
